p tw 20 53
0 1
0 6
0 4
0 3
0 2
1 7
1 3
1 9
1 15
2 3
2 9
2 11
2 6
2 16
2 7
2 17
2 5
2 15
3 12
3 5
3 4
3 18
3 10
3 14
3 9
4 5
4 12
5 12
5 7
5 19
6 8
6 15
7 14
7 15
7 16
8 15
8 17
8 11
8 12
9 16
9 15
9 18
9 12
10 11
10 13
10 17
11 16
12 19
13 14
15 19
16 19
16 18
17 18
